; Insertion sort
(declare-datatypes (a)
  ((list (nil) (cons (head a) (tail (list a))))))
(declare-datatypes () ((Nat (zero) (succ (p Nat)))))
(define-fun-rec
  leq
    ((x Nat) (y Nat)) Bool
    (match x
      (case zero true)
      (case (succ z)
        (match y
          (case zero false)
          (case (succ x2) (leq z x2))))))
(define-fun-rec
  insert
    ((x Nat) (y (list Nat))) (list Nat)
    (match y
      (case nil (cons x (_ nil Nat)))
      (case (cons z xs)
        (ite (leq x z) (cons x y) (cons z (insert x xs))))))
(define-fun-rec
  isort
    ((x (list Nat))) (list Nat)
    (match x
      (case nil (_ nil Nat))
      (case (cons y xs) (insert y (isort xs)))))
(define-fun-rec
  (par (a)
    (elem
       ((x a) (y (list a))) Bool
       (match y
         (case nil false)
         (case (cons z xs) (or (= z x) (elem x xs)))))))
(define-fun-rec
  (par (a)
    (deleteBy
       ((x (=> a (=> a Bool))) (y a) (z (list a))) (list a)
       (match z
         (case nil (_ nil a))
         (case (cons y2 ys)
           (ite (@ (@ x y) y2) ys (cons y2 (deleteBy x y ys))))))))
(define-fun-rec
  (par (a)
    (isPermutation
       ((x (list a)) (y (list a))) Bool
       (match x
         (case nil
           (match y
             (case nil true)
             (case (cons z x2) false)))
         (case (cons x3 xs)
           (and (elem x3 y)
             (isPermutation xs
               (deleteBy (lambda ((x4 a)) (lambda ((x5 a)) (= x4 x5)))
                 x3 y))))))))
(prove (forall ((xs (list Nat))) (isPermutation (isort xs) xs)))
